14° run output:
{
    "Function": "euclidA300.tsp",
    "Problem dimension": [
        189,
        6,
        51,
        224,
        31,
        75,
        34,
        19,
        238,
        260,
        53,
        171,
        152,
        201,
        202,
        207,
        150,
        141,
        54,
        151,
        23,
        292,
        33,
        69,
        37,
        79,
        72,
        111,
        146,
        80,
        217,
        299,
        114,
        229,
        208,
        246,
        143,
        97,
        67,
        74,
        121,
        15,
        102,
        235,
        78,
        112,
        273,
        119,
        98,
        127,
        244,
        223,
        270,
        226,
        180,
        165,
        25,
        233,
        215,
        241,
        132,
        64,
        281,
        136,
        237,
        94,
        269,
        88,
        55,
        240,
        160,
        1,
        126,
        254,
        18,
        82,
        134,
        258,
        41,
        287,
        60,
        206,
        106,
        219,
        95,
        183,
        209,
        188,
        99,
        46,
        252,
        104,
        47,
        266,
        45,
        236,
        191,
        57,
        220,
        85,
        232,
        168,
        173,
        90,
        182,
        203,
        11,
        59,
        222,
        170,
        153,
        268,
        24,
        204,
        68,
        283,
        256,
        81,
        162,
        245,
        296,
        278,
        294,
        259,
        250,
        149,
        109,
        243,
        138,
        242,
        198,
        172,
        130,
        275,
        100,
        56,
        103,
        263,
        140,
        48,
        164,
        274,
        139,
        169,
        282,
        86,
        247,
        284,
        124,
        71,
        123,
        231,
        285,
        154,
        39,
        228,
        177,
        125,
        155,
        225,
        61,
        194,
        221,
        179,
        70,
        267,
        50,
        65,
        144,
        115,
        251,
        205,
        116,
        9,
        145,
        38,
        176,
        157,
        253,
        255,
        265,
        27,
        62,
        293,
        30,
        277,
        192,
        187,
        29,
        131,
        83,
        210,
        128,
        264,
        262,
        286,
        197,
        297,
        92,
        17,
        272,
        163,
        129,
        40,
        271,
        227,
        199,
        248,
        213,
        42,
        63,
        32,
        214,
        135,
        279,
        178,
        91,
        137,
        58,
        13,
        291,
        20,
        44,
        200,
        185,
        49,
        10,
        295,
        230,
        66,
        298,
        234,
        101,
        175,
        120,
        158,
        28,
        257,
        8,
        5,
        22,
        156,
        161,
        289,
        280,
        7,
        147,
        249,
        211,
        93,
        190,
        159,
        0,
        174,
        96,
        3,
        43,
        181,
        16,
        193,
        21,
        196,
        84,
        166,
        148,
        239,
        118,
        133,
        12,
        216,
        35,
        261,
        184,
        290,
        117,
        167,
        122,
        108,
        212,
        14,
        107,
        77,
        142,
        26,
        186,
        113,
        105,
        36,
        76,
        52,
        87,
        110,
        73,
        276,
        195,
        89,
        4,
        2,
        288,
        218
    ],
    "Global Optimum": 0,
    "Algorithm": "Genetic algorithm",
    "Parameters": {
        "population": 30,
        "offspring": 30,
        "mutation probability": 0.0033333333333333335,
        "crossover probability": 0.9
    },
    "Fitness": 287514,
    "Solution": [
        189,
        6,
        51,
        224,
        31,
        75,
        34,
        19,
        238,
        260,
        53,
        171,
        152,
        201,
        202,
        207,
        150,
        141,
        54,
        151,
        23,
        292,
        33,
        69,
        37,
        79,
        72,
        111,
        146,
        80,
        217,
        299,
        114,
        229,
        208,
        246,
        143,
        97,
        67,
        74,
        121,
        15,
        102,
        235,
        78,
        112,
        273,
        119,
        98,
        127,
        244,
        223,
        270,
        226,
        180,
        165,
        25,
        233,
        215,
        241,
        132,
        64,
        281,
        136,
        237,
        94,
        269,
        88,
        55,
        240,
        160,
        1,
        126,
        254,
        18,
        82,
        134,
        258,
        41,
        287,
        60,
        206,
        106,
        219,
        95,
        183,
        209,
        188,
        99,
        46,
        252,
        104,
        47,
        266,
        45,
        236,
        191,
        57,
        220,
        85,
        232,
        168,
        173,
        90,
        182,
        203,
        11,
        59,
        222,
        170,
        153,
        268,
        24,
        204,
        68,
        283,
        256,
        81,
        162,
        245,
        296,
        278,
        294,
        259,
        250,
        149,
        109,
        243,
        138,
        242,
        198,
        172,
        130,
        275,
        100,
        56,
        103,
        263,
        140,
        48,
        164,
        274,
        139,
        169,
        282,
        86,
        247,
        284,
        124,
        71,
        123,
        231,
        285,
        154,
        39,
        228,
        177,
        125,
        155,
        225,
        61,
        194,
        221,
        179,
        70,
        267,
        50,
        65,
        144,
        115,
        251,
        205,
        116,
        9,
        145,
        38,
        176,
        157,
        253,
        255,
        265,
        27,
        62,
        293,
        30,
        277,
        192,
        187,
        29,
        131,
        83,
        210,
        128,
        264,
        262,
        286,
        197,
        297,
        92,
        17,
        272,
        163,
        129,
        40,
        271,
        227,
        199,
        248,
        213,
        42,
        63,
        32,
        214,
        135,
        279,
        178,
        91,
        137,
        58,
        13,
        291,
        20,
        44,
        200,
        185,
        49,
        10,
        295,
        230,
        66,
        298,
        234,
        101,
        175,
        120,
        158,
        28,
        257,
        8,
        5,
        22,
        156,
        161,
        289,
        280,
        7,
        147,
        249,
        211,
        93,
        190,
        159,
        0,
        174,
        96,
        3,
        43,
        181,
        16,
        193,
        21,
        196,
        84,
        166,
        148,
        239,
        118,
        133,
        12,
        216,
        35,
        261,
        184,
        290,
        117,
        167,
        122,
        108,
        212,
        14,
        107,
        77,
        142,
        26,
        186,
        113,
        105,
        36,
        76,
        52,
        87,
        110,
        73,
        276,
        195,
        89,
        4,
        2,
        288,
        218
    ],
    "Nb of functions evaluations": 400020,
    "Computational time in seconds": 701.4851589202881,
    "Stopping criterion in evaluations": 400000
}